NAME : local_4
TYPE : ATSP
DIMENSION : 16
EDGE_WEIGHT_TYPE : EXPLICIT
EDGE_WEIGHT_FORMAT : FULL_MATRIX
EDGE_WEIGHT_SECTION
0 10000000 658 10000000 10000000 849 366 10000000 374 598 10000000 10000000 10000000 10000000 10000000 10000000 
0 0 694 10000000 842 10000000 10000000 10000000 943 515 846 161 742 10000000 10000000 10000000 
0 694 0 10000000 10000000 10000000 477 10000000 340 307 10000000 842 10000000 10000000 10000000 10000000 
0 10000000 10000000 0 10000000 10000000 10000000 718 10000000 10000000 10000000 10000000 10000000 10000000 423 259 
0 842 10000000 10000000 0 10000000 10000000 10000000 10000000 10000000 287 841 798 10000000 10000000 10000000 
0 10000000 10000000 10000000 10000000 0 651 10000000 778 10000000 10000000 10000000 10000000 10000000 10000000 10000000 
0 10000000 477 10000000 10000000 651 0 1016 150 577 10000000 10000000 10000000 979 10000000 10000000 
0 10000000 10000000 718 10000000 10000000 1065 0 1084 10000000 10000000 10000000 10000000 400 512 586 
0 943 340 10000000 10000000 778 150 1221 0 438 10000000 10000000 10000000 924 10000000 10000000 
0 515 307 10000000 10000000 10000000 577 10000000 438 0 936 675 10000000 945 10000000 10000000 
0 846 10000000 10000000 287 10000000 10000000 10000000 10000000 936 0 897 10000000 794 10000000 10000000 
0 161 842 10000000 841 10000000 10000000 10000000 10000000 675 897 0 610 10000000 10000000 10000000 
0 742 10000000 10000000 798 10000000 10000000 10000000 10000000 10000000 10000000 610 0 10000000 10000000 10000000 
0 10000000 10000000 10000000 10000000 10000000 946 400 924 945 794 10000000 10000000 0 870 981 
0 10000000 10000000 423 10000000 10000000 10000000 512 10000000 10000000 10000000 10000000 10000000 870 0 381 
0 10000000 10000000 259 10000000 10000000 10000000 586 10000000 10000000 10000000 10000000 10000000 981 381 0 
EOF